qbf_easy_train/easy_2815_UNSAT.qdimacs
p cnf 34 93
a 1 29 13 0
e 2 3 4 5 6 7 8 9 10 11 12 14 15 16 17 18 19 20 21 22 23 24 25 26 27 28 30 31 32 33 34 0
-3 -1 0
-3 2 0
1 -2 3 0
1 4 -5 0
-1 -4 -5 0
1 -4 5 0
-1 4 5 0
6 -5 -7 0
-6 5 -7 0
6 5 7 0
-6 -5 7 0
8 5 0
8 7 0
-5 -7 -8 0
10 -8 0
10 -9 0
8 9 -10 0
6 11 -12 0
-6 -11 -12 0
6 -11 12 0
-6 11 12 0
13 -6 0
13 -8 0
6 8 -13 0
-14 -13 0
-14 -7 0
13 7 14 0
15 12 0
15 -14 0
-12 14 -15 0
11 9 -16 0
-11 -9 -16 0
11 -9 16 0
-11 9 16 0
-17 9 0
-17 16 0
-9 -16 17 0
18 -7 0
18 -17 0
7 17 -18 0
-19 -1 0
-19 -4 0
1 4 19 0
20 -18 0
20 19 0
18 -19 -20 0
-21 15 0
-21 -20 0
-15 20 21 0
22 -5 0
22 -11 0
5 11 -22 0
-24 -22 0
-24 -23 0
22 23 24 0
-21 -24 -25 0
21 24 -25 0
-21 24 25 0
21 -24 25 0
-16 5 -26 0
16 -5 -26 0
-16 -5 26 0
16 5 26 0
-28 27 0
-28 13 0
-27 -13 28 0
-29 26 0
-29 -28 0
-26 28 29 0
-30 25 0
-30 29 0
-25 -29 30 0
-31 -10 0
-31 30 0
10 -30 31 0
-32 3 0
-32 -31 0
-3 31 32 0
-33 -8 0
-33 23 0
8 -23 33 0
34 -32 0
34 -33 0
32 33 -34 0
-31 -14 -32 -6 20 0
1 -21 -25 -29 18 -3 -7 0
28 -11 26 -29 3 0
18 -8 -12 -23 0
-1 32 8 0
11 16 -29 7 24 22 0
-24 -12 3 19 -21 0
20 7 -25 3 14 32 0
34 0
