sat_easy_train/easy_2815_UNSAT.dimacs
p cnf 111 364
-4 5 -6 0
4 -5 -6 0
-4 -5 6 0
4 5 6 0
6 -7 -8 0
-6 7 -8 0
6 7 8 0
-6 -7 8 0
9 3 0
9 8 0
-3 -8 -9 0
2 -9 -10 0
-2 9 -10 0
2 9 10 0
-2 -9 10 0
-11 1 0
-11 10 0
-1 -10 11 0
-13 -11 0
-13 -12 0
11 12 13 0
-7 15 -16 0
7 -15 -16 0
-7 -15 16 0
7 15 16 0
17 14 0
17 16 0
-14 -16 -17 0
-18 -13 0
-18 17 0
13 -17 18 0
20 19 0
20 -14 0
-19 14 -20 0
-21 -18 0
-21 -20 0
18 20 21 0
-23 -1 0
-23 22 0
1 -22 23 0
24 -23 0
24 -10 0
23 10 -24 0
24 -14 -25 0
-24 14 -25 0
24 14 25 0
-24 -14 25 0
-19 14 -26 0
19 -14 -26 0
-19 -14 26 0
19 14 26 0
27 -26 0
27 8 0
26 -8 -27 0
-28 -25 0
-28 -27 0
25 27 28 0
-30 -15 0
-30 -4 0
15 4 30 0
-31 29 0
-31 -30 0
-29 30 31 0
1 5 -32 0
-1 -5 -32 0
1 -5 32 0
-1 5 32 0
-33 -30 0
-33 -32 0
30 32 33 0
-34 31 0
-34 33 0
-31 -33 34 0
35 28 0
35 34 0
-28 -34 -35 0
-17 -29 -36 0
17 29 -36 0
-17 29 36 0
17 -29 36 0
-37 -36 0
-37 6 0
36 -6 37 0
37 -33 -38 0
-37 33 -38 0
37 33 38 0
-37 -33 38 0
39 12 0
39 12 0
-12 -39 0
40 -38 0
40 39 0
38 -39 -40 0
-19 29 -41 0
19 -29 -41 0
-19 -29 41 0
19 29 41 0
-32 -41 -42 0
32 41 -42 0
-32 41 42 0
32 -41 42 0
-44 43 0
-44 -8 0
-43 8 44 0
-45 44 0
-45 39 0
-44 -39 45 0
-46 42 0
-46 45 0
-42 -45 46 0
47 14 0
47 -33 0
-14 33 -47 0
48 -46 0
48 -47 0
46 47 -48 0
-49 40 0
-49 48 0
-40 -48 49 0
-50 -35 0
-50 49 0
35 -49 50 0
-51 10 0
-51 -43 0
-10 43 51 0
-51 -5 -52 0
51 5 -52 0
-51 5 52 0
51 -5 52 0
-53 -9 0
-53 -8 0
9 8 53 0
55 54 0
55 25 0
-54 -25 -55 0
53 55 -56 0
-53 -55 -56 0
53 -55 56 0
-53 55 56 0
-57 2 0
-57 6 0
-2 -6 57 0
-58 -57 0
-58 5 0
57 -5 58 0
59 -14 0
59 -29 0
14 29 -59 0
-60 58 0
-60 -59 0
-58 59 60 0
-61 -56 0
-61 60 0
56 -60 61 0
-52 -61 -62 0
52 61 -62 0
-52 61 62 0
52 -61 62 0
-63 -50 0
-63 -62 0
50 62 63 0
-64 16 0
-64 36 0
-16 -36 64 0
-65 -36 0
-65 64 0
36 -64 65 0
66 22 -67 0
-66 -22 -67 0
66 -22 67 0
-66 22 67 0
-68 67 0
-68 57 0
-67 -57 68 0
-19 16 -69 0
19 -16 -69 0
-19 -16 69 0
19 16 69 0
-70 -26 0
-70 69 0
26 -69 70 0
23 -70 -71 0
-23 70 -71 0
23 70 71 0
-23 -70 71 0
72 -37 0
72 22 0
37 -22 -72 0
-73 -71 0
-73 -72 0
71 72 73 0
75 -73 0
75 74 0
73 -74 -75 0
68 -75 -76 0
-68 75 -76 0
68 75 76 0
-68 -75 76 0
-77 -65 0
-77 76 0
65 -76 77 0
78 -4 0
78 32 0
4 -32 -78 0
79 -26 0
79 64 0
26 -64 -79 0
78 -79 -80 0
-78 79 -80 0
78 79 80 0
-78 -79 80 0
81 -77 0
81 -80 0
77 80 -81 0
-12 10 -82 0
12 -10 -82 0
-12 -10 82 0
12 10 82 0
-83 -26 0
-83 -66 0
26 66 83 0
-84 43 0
-84 5 0
-43 -5 84 0
-85 5 0
-85 84 0
-5 -84 85 0
86 85 0
86 43 0
-85 -43 -86 0
-87 83 0
-87 86 0
-83 -86 87 0
-88 -19 0
-88 -70 0
19 70 88 0
-89 58 0
-89 31 0
-58 -31 89 0
-90 88 0
-90 -89 0
-88 89 90 0
-91 -9 0
-91 67 0
9 -67 91 0
-92 -91 0
-92 36 0
91 -36 92 0
-93 -39 0
-93 67 0
39 -67 93 0
-12 -93 -94 0
12 93 -94 0
-12 93 94 0
12 -93 94 0
95 92 0
95 -94 0
-92 94 -95 0
-96 90 0
-96 95 0
-90 -95 96 0
64 -11 -97 0
-64 11 -97 0
64 11 97 0
-64 -11 97 0
29 70 -98 0
-29 -70 -98 0
29 -70 98 0
-29 70 98 0
-97 98 -99 0
97 -98 -99 0
-97 -98 99 0
97 98 99 0
-100 -96 0
-100 99 0
96 -99 100 0
101 -87 0
101 -100 0
87 100 -101 0
-16 -10 -102 0
16 10 -102 0
-16 10 102 0
16 -10 102 0
-14 -66 -103 0
14 66 -103 0
-14 66 103 0
14 -66 103 0
-102 -103 -104 0
102 103 -104 0
-102 103 104 0
102 -103 104 0
101 -104 -105 0
-101 104 -105 0
101 104 105 0
-101 -104 105 0
-106 82 0
-106 -105 0
-82 105 106 0
81 106 -107 0
-81 -106 -107 0
81 -106 107 0
-81 106 107 0
-108 63 0
-108 -107 0
-63 107 108 0
21 -108 -109 0
-21 108 -109 0
21 108 109 0
-21 -108 109 0
110 -32 0
110 7 0
32 -7 -110 0
-109 -110 -111 0
109 110 -111 0
-109 110 111 0
109 -110 111 0
-82 -32 85 0
-71 -23 102 -101 0
-91 -108 -86 -64 -63 -61 0
-44 -67 101 31 0
-59 73 -80 45 -49 0
-100 97 5 73 0
47 -91 109 -33 -69 -54 0
-49 -15 36 -104 -1 0
-102 -23 88 62 72 0
32 -70 25 0
57 60 0
103 65 0
57 -76 -15 103 53 0
-101 47 0
-4 -11 0
-93 -106 98 85 38 0
21 -12 0
-17 90 66 69 -93 84 0
-20 28 -7 14 0
-27 96 3 25 110 54 0
2 25 0
4 83 -70 24 0
3 68 78 22 0
97 12 54 0
-37 -19 -84 -77 -64 25 0
32 -29 83 12 -81 0
-70 -96 0
-81 41 -24 -1 -38 -35 0
90 -19 -37 110 -107 0
37 2 0
63 42 96 0
-57 -22 -36 40 -71 0
-35 -49 94 -16 0
-21 26 27 0
16 84 52 96 30 0
29 -102 -30 -38 23 -57 0
-16 104 25 -100 17 86 0
42 15 98 -4 -35 0
103 -43 -108 0
55 79 -66 0
82 53 0
-55 -95 -21 0
-75 -55 -94 16 -36 0
-8 59 0
93 80 30 21 -7 0
-83 -110 -67 -99 57 0
-31 -52 -101 55 -75 -74 0
111 0
